NAME : random_16
COMMENT : 30 random nodes
TYPE : TSP
DIMENSION : 30
EDGE_WEIGHT_TYPE : EUC_2D
NODE_COORD_SECTION
1 714 343
2 418 814
3 157 521
4 886 526
5 477 409
6 823 45
7 358 102
8 793 798
9 551 321
10 863 337
11 633 257
12 948 832
13 86 941
14 883 240
15 760 57
16 407 893
17 423 50
18 266 944
19 162 741
20 946 845
21 504 601
22 271 234
23 175 654
24 906 247
25 206 53
26 883 621
27 709 91
28 621 210
29 509 566
30 677 262
EOF